Cars = 1..100;
Options = 1..5;
Classes = 1..26;
sequenceMinCapacity = [0, 0, 0, 0, 0];
sequenceMaxCapacity = [1, 2, 1, 2, 1];
sequenceSize = [2, 3, 3, 5, 5];
numOrdered = [10, 2, 8, 8, 6, 11, 3, 2, 7, 2, 4, 7, 1, 3, 4, 5, 2, 1, 2, 3, 2, 1, 3, 1, 1, 1];
classHasOption = [| true, false, false, false, false
                  |false, false, false, false,  true
                  |false,  true, false,  true, false
                  |false, false, false,  true, false
                  |false,  true,  true, false, false
                  |false,  true, false, false, false
                  |false, false,  true, false, false
                  |false, false,  true,  true, false
                  | true,  true, false, false, false
                  | true, false, false,  true,  true
                  | true, false,  true, false, false
                  | true, false, false,  true, false
                  | true,  true,  true, false,  true
                  |false,  true,  true,  true, false
                  |false,  true, false, false,  true
                  | true,  true,  true, false, false
                  | true,  true, false, false,  true
                  | true, false,  true,  true,  true
                  | true, false,  true,  true, false
                  | true, false, false, false,  true
                  |false,  true,  true, false,  true
                  |false,  true, false,  true,  true
                  | true,  true, false,  true, false
                  |false, false,  true,  true,  true
                  | true,  true,  true,  true,  true
                  | true,  true,  true,  true, false|];
optionOrdering = [5, 1, 3, 4, 2];
